10	5
0	5	5	3	1	4	2
1	2	6	7
2	2	10	6
3	1	8
4	1	6
5	3	8	9	7
6	2	9	8
7	1	10
8	1	11
9	1	11
10	1	11
11	0
0	0	0	0	0	0	0
1	3	1	5	2	5	4
2	2	3	0	0	3	1
3	8	1	4	5	3	3
4	3	0	0	5	0	0
5	10	5	0	1	3	2
6	6	0	0	5	5	4
7	5	2	4	3	0	0
8	10	1	2	2	4	2
9	10	1	0	5	5	4
10	9	2	2	4	2	5
11	0	0	0	0	0	0
6	7	9	8	7
